(set-logic QF_LRA)
(declare-fun X0 () Real )
(declare-fun Y0 () Real )
(declare-fun X1 () Real )
(declare-fun Y1 () Real )
(declare-fun X2 () Real )
(declare-fun Y2 () Real )
(declare-fun X3 () Real )
(declare-fun Y3 () Real )
(declare-fun X4 () Real )
(declare-fun Y4 () Real )
(declare-fun X5 () Real )
(declare-fun Y5 () Real )
(declare-fun X6 () Real )
(declare-fun Y6 () Real )
(declare-fun X7 () Real )
(declare-fun Y7 () Real )
(declare-fun X8 () Real )
(declare-fun Y8 () Real )
(declare-fun Z () Real )
(assert ( and  
( or ( <= ( + X0 12 ) X1 )  ( <= ( + X1 86 ) X0 )  ( <= ( + Y0 97 ) Y1 )  ( <= ( + Y1 11 ) Y0 )  )
( or ( <= ( + X0 12 ) X2 )  ( <= ( + X2 54 ) X0 )  ( <= ( + Y0 97 ) Y2 )  ( <= ( + Y2 48 ) Y0 )  )
( or ( <= ( + X0 12 ) X3 )  ( <= ( + X3 13 ) X0 )  ( <= ( + Y0 97 ) Y3 )  ( <= ( + Y3 36 ) Y0 )  )
( or ( <= ( + X0 12 ) X4 )  ( <= ( + X4 32 ) X0 )  ( <= ( + Y0 97 ) Y4 )  ( <= ( + Y4 13 ) Y0 )  )
( or ( <= ( + X0 12 ) X5 )  ( <= ( + X5 23 ) X0 )  ( <= ( + Y0 97 ) Y5 )  ( <= ( + Y5 87 ) Y0 )  )
( or ( <= ( + X0 12 ) X6 )  ( <= ( + X6 12 ) X0 )  ( <= ( + Y0 97 ) Y6 )  ( <= ( + Y6 88 ) Y0 )  )
( or ( <= ( + X0 12 ) X7 )  ( <= ( + X7 65 ) X0 )  ( <= ( + Y0 97 ) Y7 )  ( <= ( + Y7 1 ) Y0 )  )
( or ( <= ( + X0 12 ) X8 )  ( <= ( + X8 99 ) X0 )  ( <= ( + Y0 97 ) Y8 )  ( <= ( + Y8 99 ) Y0 )  )
( or ( <= ( + X1 86 ) X2 )  ( <= ( + X2 54 ) X1 )  ( <= ( + Y1 11 ) Y2 )  ( <= ( + Y2 48 ) Y1 )  )
( or ( <= ( + X1 86 ) X3 )  ( <= ( + X3 13 ) X1 )  ( <= ( + Y1 11 ) Y3 )  ( <= ( + Y3 36 ) Y1 )  )
( or ( <= ( + X1 86 ) X4 )  ( <= ( + X4 32 ) X1 )  ( <= ( + Y1 11 ) Y4 )  ( <= ( + Y4 13 ) Y1 )  )
( or ( <= ( + X1 86 ) X5 )  ( <= ( + X5 23 ) X1 )  ( <= ( + Y1 11 ) Y5 )  ( <= ( + Y5 87 ) Y1 )  )
( or ( <= ( + X1 86 ) X6 )  ( <= ( + X6 12 ) X1 )  ( <= ( + Y1 11 ) Y6 )  ( <= ( + Y6 88 ) Y1 )  )
( or ( <= ( + X1 86 ) X7 )  ( <= ( + X7 65 ) X1 )  ( <= ( + Y1 11 ) Y7 )  ( <= ( + Y7 1 ) Y1 )  )
( or ( <= ( + X1 86 ) X8 )  ( <= ( + X8 99 ) X1 )  ( <= ( + Y1 11 ) Y8 )  ( <= ( + Y8 99 ) Y1 )  )
( or ( <= ( + X2 54 ) X3 )  ( <= ( + X3 13 ) X2 )  ( <= ( + Y2 48 ) Y3 )  ( <= ( + Y3 36 ) Y2 )  )
( or ( <= ( + X2 54 ) X4 )  ( <= ( + X4 32 ) X2 )  ( <= ( + Y2 48 ) Y4 )  ( <= ( + Y4 13 ) Y2 )  )
( or ( <= ( + X2 54 ) X5 )  ( <= ( + X5 23 ) X2 )  ( <= ( + Y2 48 ) Y5 )  ( <= ( + Y5 87 ) Y2 )  )
( or ( <= ( + X2 54 ) X6 )  ( <= ( + X6 12 ) X2 )  ( <= ( + Y2 48 ) Y6 )  ( <= ( + Y6 88 ) Y2 )  )
( or ( <= ( + X2 54 ) X7 )  ( <= ( + X7 65 ) X2 )  ( <= ( + Y2 48 ) Y7 )  ( <= ( + Y7 1 ) Y2 )  )
( or ( <= ( + X2 54 ) X8 )  ( <= ( + X8 99 ) X2 )  ( <= ( + Y2 48 ) Y8 )  ( <= ( + Y8 99 ) Y2 )  )
( or ( <= ( + X3 13 ) X4 )  ( <= ( + X4 32 ) X3 )  ( <= ( + Y3 36 ) Y4 )  ( <= ( + Y4 13 ) Y3 )  )
( or ( <= ( + X3 13 ) X5 )  ( <= ( + X5 23 ) X3 )  ( <= ( + Y3 36 ) Y5 )  ( <= ( + Y5 87 ) Y3 )  )
( or ( <= ( + X3 13 ) X6 )  ( <= ( + X6 12 ) X3 )  ( <= ( + Y3 36 ) Y6 )  ( <= ( + Y6 88 ) Y3 )  )
( or ( <= ( + X3 13 ) X7 )  ( <= ( + X7 65 ) X3 )  ( <= ( + Y3 36 ) Y7 )  ( <= ( + Y7 1 ) Y3 )  )
( or ( <= ( + X3 13 ) X8 )  ( <= ( + X8 99 ) X3 )  ( <= ( + Y3 36 ) Y8 )  ( <= ( + Y8 99 ) Y3 )  )
( or ( <= ( + X4 32 ) X5 )  ( <= ( + X5 23 ) X4 )  ( <= ( + Y4 13 ) Y5 )  ( <= ( + Y5 87 ) Y4 )  )
( or ( <= ( + X4 32 ) X6 )  ( <= ( + X6 12 ) X4 )  ( <= ( + Y4 13 ) Y6 )  ( <= ( + Y6 88 ) Y4 )  )
( or ( <= ( + X4 32 ) X7 )  ( <= ( + X7 65 ) X4 )  ( <= ( + Y4 13 ) Y7 )  ( <= ( + Y7 1 ) Y4 )  )
( or ( <= ( + X4 32 ) X8 )  ( <= ( + X8 99 ) X4 )  ( <= ( + Y4 13 ) Y8 )  ( <= ( + Y8 99 ) Y4 )  )
( or ( <= ( + X5 23 ) X6 )  ( <= ( + X6 12 ) X5 )  ( <= ( + Y5 87 ) Y6 )  ( <= ( + Y6 88 ) Y5 )  )
( or ( <= ( + X5 23 ) X7 )  ( <= ( + X7 65 ) X5 )  ( <= ( + Y5 87 ) Y7 )  ( <= ( + Y7 1 ) Y5 )  )
( or ( <= ( + X5 23 ) X8 )  ( <= ( + X8 99 ) X5 )  ( <= ( + Y5 87 ) Y8 )  ( <= ( + Y8 99 ) Y5 )  )
( or ( <= ( + X6 12 ) X7 )  ( <= ( + X7 65 ) X6 )  ( <= ( + Y6 88 ) Y7 )  ( <= ( + Y7 1 ) Y6 )  )
( or ( <= ( + X6 12 ) X8 )  ( <= ( + X8 99 ) X6 )  ( <= ( + Y6 88 ) Y8 )  ( <= ( + Y8 99 ) Y6 )  )
( or ( <= ( + X7 65 ) X8 )  ( <= ( + X8 99 ) X7 )  ( <= ( + Y7 1 ) Y8 )  ( <= ( + Y8 99 ) Y7 )  )
( >= X0 0)
( <= ( + X0 12) Z)
( >= Y0 0)
( <= ( + Y0 97 ) 100)
( >= X1 0)
( <= ( + X1 86) Z)
( >= Y1 0)
( <= ( + Y1 11 ) 100)
( >= X2 0)
( <= ( + X2 54) Z)
( >= Y2 0)
( <= ( + Y2 48 ) 100)
( >= X3 0)
( <= ( + X3 13) Z)
( >= Y3 0)
( <= ( + Y3 36 ) 100)
( >= X4 0)
( <= ( + X4 32) Z)
( >= Y4 0)
( <= ( + Y4 13 ) 100)
( >= X5 0)
( <= ( + X5 23) Z)
( >= Y5 0)
( <= ( + Y5 87 ) 100)
( >= X6 0)
( <= ( + X6 12) Z)
( >= Y6 0)
( <= ( + Y6 88 ) 100)
( >= X7 0)
( <= ( + X7 65) Z)
( >= Y7 0)
( <= ( + Y7 1 ) 100)
( >= X8 0)
( <= ( + X8 99) Z)
( >= Y8 0)
( <= ( + Y8 99 ) 100)
) )
(minimize Z)
(check-sat)
